p cnf 14 14
11 -12 13 -14 -15 -16 17 -18 -19 -110 -111 112 113 -114 0
-11 12 13 -14 15 -16 17 -18 -19 110 -111 112 113 -114 0
11 12 13 -14 -15 -16 -17 18 -19 -110 -111 -112 113 -114 0
-11 -12 -13 14 -15 -16 -17 -18 19 -110 -111 112 113 114 0
-11 12 -13 -14 15 -16 -17 18 -19 110 -111 -112 -113 -114 0
-11 -12 -13 -14 -15 16 17 18 19 -110 -111 112 113 -114 0
11 12 -13 -14 -15 16 17 -18 -19 -110 -111 -112 -113 -114 0
-11 -12 13 -14 15 16 -17 18 -19 -110 -111 -112 -113 -114 0
-11 -12 -13 14 -15 16 -17 -18 19 -110 -111 -112 113 -114 0
-11 12 -13 -14 15 -16 -17 -18 -19 110 111 -112 113 -114 0
-11 -12 -13 -14 -15 -16 -17 -18 -19 110 111 -112 -113 -114 0
11 12 -13 14 -15 16 -17 -18 -19 -110 -111 112 -113 -114 0
11 12 13 14 -15 16 -17 -18 19 110 -111 -112 113 -114 0
-11 -12 -13 14 -15 -16 -17 -18 -19 -110 -111 -112 -113 114 0
